9
0, 216, 581, 624, 428, 425, 277, 439, 315
216, 0, 370, 412, 246, 223, 97, 276, 174
581, 370, 0, 44, 323, 163, 310, 375, 313
624, 412, 44, 0, 348, 207, 354, 398, 356
428, 246, 323, 348, 0, 283, 288, 54, 360
425, 223, 163, 207, 283, 0, 149, 336, 152
277, 97, 310, 354, 288, 149, 0, 329, 81
439, 276, 375, 398, 54, 336, 329, 0, 405
315, 174, 313, 356, 360, 152, 81, 405, 0
